 vasp.5.4.1 05Feb16 (build Jul 05 2020 17:13:04) complex

 executed on           IFC91_ompi date 2024.03.22  03:21:19

 INCAR:
 POTCAR:   PAW_PBE Cr 06Sep2000
 POTCAR:    PAW_PBE S 17Jan2003

 POTCAR:   PAW_PBE Cr 06Sep2000
   VRHFIN =Cr : d5 s1

   TITEL  = PAW_PBE Cr 06Sep2000
   POMASS =   51.996; ZVAL   =    6.000    mass and valenz
   ENMAX  =  227.082; ENMIN  =  170.311 eV
   QCUT   =   -4.085; QGAM   =    8.171    optimization parameters

   Description
     l     E      TYP  RCUT    TYP  RCUT
     2   .000     23  2.500
     2   .000     23  2.500
     0   .000     23  2.500
     0   .000     23  2.500
     1  -.400     23  2.500
     1  2.000     23  2.500
     3   .000      7   .000

 POTCAR:    PAW_PBE S 17Jan2003
   VRHFIN =S : s2p4

   TITEL  = PAW_PBE S 17Jan2003
   POMASS =   32.066; ZVAL   =    6.000    mass and valenz
   ENMAX  =  280.000; ENMIN  =  194.016 eV
   QCUT   =   -4.360; QGAM   =    8.721    optimization parameters

   Description
     l     E      TYP  RCUT    TYP  RCUT
     0   .000     23  1.900
     0   .000     23  1.900
     1   .000     23  1.900
     1   .000     23  1.900
     2   .000     23  1.900

 PAW_PBE Cr 06Sep2000                   :
  PAW_PBE S 17Jan2003                   :

 POSCAR: crystal structure from CrS2 with Hexagin
  positions in cartesian coordinates
 exchange correlation table for  LEXCH =        8
   RHO(1)=    0.500       N(1)  =     2000
   RHO(2)=  100.500       N(2)  =     4000

 ion  position               nearest neighbor table
   1  0.000  0.000  0.000-  23 2.34  14 2.34  11 2.36  10 2.36  27 2.36  26 2.36
   2  1.000  0.333  0.000-  25 2.34  10 2.34  13 2.36  12 2.36  22 2.36  23 2.36
   3  0.000  0.667  0.000-  27 2.34  12 2.34  14 2.36  15 2.36  24 2.36  25 2.36
   4  0.333  0.000  0.000-  11 2.34  20 2.34  17 2.36  16 2.36  15 2.36  14 2.36
   5  0.333  0.333  0.000-  13 2.34  16 2.34  19 2.36  18 2.36  11 2.36  10 2.36
   6  0.333  0.667  0.000-  15 2.34  18 2.34  20 2.36  21 2.36  13 2.36  12 2.36
   7  0.667  0.000  0.000-  17 2.34  26 2.34  23 2.36  22 2.36  21 2.36  20 2.36
   8  0.667  0.333  0.000-  19 2.34  22 2.34  25 2.36  24 2.36  17 2.36  16 2.36
   9  0.667  0.667  0.000-  21 2.34  24 2.34  27 2.36  26 2.36  19 2.36  18 2.36
  10  0.111  0.222  0.955-   2 2.34   1 2.36   5 2.36
  11  0.222  0.111  0.045-   4 2.34   1 2.36   5 2.36
  12  0.111  0.556  0.955-   3 2.34   2 2.36   6 2.36
  13  0.222  0.444  0.045-   5 2.34   2 2.36   6 2.36
  14  0.111  0.889  0.955-   1 2.34   3 2.36   4 2.36
  15  0.222  0.777  0.045-   6 2.34   3 2.36   4 2.36
  16  0.444  0.222  0.955-   5 2.34   4 2.36   8 2.36
  17  0.556  0.111  0.045-   7 2.34   4 2.36   8 2.36
  18  0.444  0.556  0.955-   6 2.34   5 2.36   9 2.36
  19  0.556  0.444  0.045-   8 2.34   5 2.36   9 2.36
  20  0.444  0.889  0.955-   4 2.34   6 2.36   7 2.36
  21  0.556  0.777  0.045-   9 2.34   6 2.36   7 2.36
  22  0.777  0.222  0.955-   8 2.34   7 2.36   2 2.36
  23  0.889  0.111  0.045-   1 2.34   7 2.36   2 2.36
  24  0.777  0.556  0.955-   9 2.34   8 2.36   3 2.36
  25  0.889  0.444  0.045-   2 2.34   8 2.36   3 2.36
  26  0.777  0.889  0.955-   7 2.34   9 2.36   1 2.36
  27  0.889  0.777  0.045-   3 2.34   9 2.36   1 2.36

  LATTYP: Found a base centered orthorhombic cell.
 ALAT       =    10.0800000276
 B/A-ratio  =     1.7202380689
 C/A-ratio  =     2.9761904680

  Lattice vectors:

 A1 = (   8.6699999603,   5.0399998944,   0.0000000000)
 A2 = (  -8.6699998215,   5.0400001332,   0.0000000000)
 A3 = (   0.0000000000,   0.0000000000,  30.0000000000)

Analysis of symmetry for initial positions (statically):
 Subroutine PRICEL returns following result:

[...]

   9 primitive cells build up your supercell.

 Routine SETGRP: Setting up the symmetry group for a
 base centered orthorhombic supercell.

 Subroutine GETGRP returns: Found  2 space group operations
 (whereof  2 operations were pure point group operations)
 out of a pool of  8 trial point group operations.

The static configuration has the point symmetry C_2 .

Analysis of symmetry for dynamics (positions and initial velocities):
 Subroutine PRICEL returns following result:

  LATTYP: Found a base centered orthorhombic cell.
 ALAT       =     3.3599998088
 B/A-ratio  =     1.7202380689
 C/A-ratio  =     8.9285719367

  Lattice vectors:

 A1 = (   2.8899998142,   1.6799998645,   0.0000000000)
 A2 = (  -2.8899997683,   1.6799999443,   0.0000000000)
 A3 = (   0.0000000000,   0.0000000000,  30.0000000000)

   9 primitive cells build up your supercell.

 Routine SETGRP: Setting up the symmetry group for a
 base centered orthorhombic supercell.

 Subroutine GETGRP returns: Found  2 space group operations
 (whereof  2 operations were pure point group operations)
 out of a pool of  8 trial point group operations.

The dynamic configuration has the point symmetry C_2 .

 Subroutine INISYM returns: Found  2 space group operations
 (whereof  2 operations are pure point group operations),
 and found     9 'primitive' translations

 KPOINTS: K-POINTS 	#supercell of CrS2 in hexagona

Automatic generation of k-mesh.
Space group operators:
 irot       det(A)        alpha          n_x          n_y          n_z        tau_x        tau_y        tau_z
    1     1.000000     0.000000     1.000000     0.000000     0.000000     0.000000     0.000000     0.000000
    2     1.000000   179.999999    -0.000000    -1.000000     0.000000     0.000000     0.000000     0.000000

 Subroutine IBZKPT returns following result:

 Found     21 irreducible k-points:

 Following reciprocal coordinates:
            Coordinates               Weight
  0.000000  0.000000  0.000000      1.000000
  0.125000  0.000000  0.000000      4.000000
  0.250000  0.000000  0.000000      4.000000
  0.375000  0.000000  0.000000      4.000000
  0.500000  0.000000  0.000000      2.000000
  0.125000  0.125000  0.000000      2.000000
  0.250000  0.125000  0.000000      4.000000
  0.375000  0.125000  0.000000      4.000000
  0.500000  0.125000  0.000000      4.000000
 -0.375000  0.125000  0.000000      4.000000
 -0.250000  0.125000  0.000000      4.000000
 -0.125000  0.125000  0.000000      2.000000
  0.250000  0.250000  0.000000      2.000000
  0.375000  0.250000  0.000000      4.000000
  0.500000  0.250000  0.000000      4.000000
 -0.375000  0.250000  0.000000      4.000000
 -0.250000  0.250000  0.000000      2.000000
  0.375000  0.375000  0.000000      2.000000
  0.500000  0.375000  0.000000      4.000000
 -0.375000  0.375000  0.000000      2.000000
  0.500000  0.500000  0.000000      1.000000

 Following cartesian coordinates:
            Coordinates               Weight
  0.000000  0.000000  0.000000      1.000000
  0.007209  0.012401  0.000000      4.000000
  0.014418  0.024802  0.000000      4.000000
  0.021626  0.037202  0.000000      4.000000
  0.028835  0.049603  0.000000      2.000000
  0.000000  0.024802  0.000000      2.000000
  0.007209  0.037202  0.000000      4.000000
  0.014418  0.049603  0.000000      4.000000
  0.021626  0.062004  0.000000      4.000000
 -0.028835 -0.024802  0.000000      4.000000
 -0.021626 -0.012401  0.000000      4.000000
 -0.014418  0.000000  0.000000      2.000000
  0.000000  0.049603  0.000000      2.000000
  0.007209  0.062004  0.000000      4.000000
  0.014418  0.074405  0.000000      4.000000
 -0.036044 -0.012401  0.000000      4.000000
 -0.028835  0.000000  0.000000      2.000000
  0.000000  0.074405  0.000000      2.000000
  0.007209  0.086806  0.000000      4.000000
 -0.043253  0.000000  0.000000      2.000000
  0.000000  0.099206  0.000000      1.000000

 I would recommend the setting:
   dimension x,y,z NGX =    41 NGY =   41 NGZ =  123
 SYSTEM =  unknown system
 POSCAR =  crystal structure from CrS2 with Hexagin

 Startparameter for this run:
   NWRITE =      2    write-flag & timer
   PREC   = normal    normal or accurate (medium, high low for compatibility)
   ISTART =      0    job   : 0-new  1-cont  2-samecut
   ICHARG =      2    charge: 1-file 2-atom 10-const
   ISPIN  =      1    spin polarized calculation?
   LNONCOLLINEAR =      F non collinear calculations
   LSORBIT =      F    spin-orbit coupling
   INIWAV =      1    electr: 0-lowe 1-rand  2-diag
   LASPH  =      F    aspherical Exc in radial PAW
   METAGGA=      F    non-selfconsistent MetaGGA calc.

 Electronic Relaxation 1
   ENCUT  =  280.0 eV  20.58 Ry    4.54 a.u.  13.68 13.68 40.93*2*pi/ulx,y,z
   ENINI  =  280.0     initial cutoff
   ENAUG  =  402.1 eV  augmentation charge cutoff
   NELM   =     60;   NELMIN=  2; NELMDL= -5     # of ELM steps
   EDIFF  = 0.1E-03   stopping-criterion for ELM
   LREAL  =      F    real-space projection
   NLSPLINE    = F    spline interpolate recip. space projectors
   LCOMPAT=      F    compatible to vasp.4.4
   GGA_COMPAT  = T    GGA compatible to vasp.4.4-vasp.4.6
   LMAXPAW     = -100 max onsite density
   LMAXMIX     =    2 max onsite mixed and CHGCAR
   VOSKOWN=      0    Vosko Wilk Nusair interpolation
   ROPT   =    0.00000   0.00000
 Ionic relaxation
   EDIFFG = 0.1E-02   stopping-criterion for IOM
   NSW    =    100    number of steps for IOM
   NBLOCK =      1;   KBLOCK =    100    inner block; outer block
   IBRION =      1    ionic relax: 0-MD 1-quasi-New 2-CG
   NFREE  =      0    steps in history (QN), initial steepest desc. (CG)
   ISIF   =      3    stress and relaxation
   IWAVPR =     11    prediction:  0-non 1-charg 2-wave 3-comb
   ISYM   =      2    0-nonsym 1-usesym 2-fastsym
   LCORR  =      T    Harris-Foulkes like correction to forces

   POTIM  = 0.5000    time-step for ionic-motion
   TEIN   =    0.0    initial temperature
   TEBEG  =    0.0;   TEEND  =   0.0 temperature during run
   SMASS  =  -3.00    Nose mass-parameter (am)
   estimated Nose-frequenzy (Omega)   =  0.10E-29 period in steps =****** mass=  -0.230E-26a.u.
   SCALEE = 1.0000    scale energy and forces
   NPACO  =    256;   APACO  = 16.0  distance and # of slots for P.C.
   PSTRESS=    0.0 pullay stress

  Mass of Ions in am
   POMASS =  52.00 32.07
  Ionic Valenz
   ZVAL   =   6.00  6.00
  Atomic Wigner-Seitz radii
  virtual crystal weights
   VCA    =   1.00  1.00
   NELECT =     162.0000    total number of electrons
   NUPDOWN=      -1.0000    fix difference up-down

 DOS related values:
   EMIN   =  10.00;   EMAX   =-10.00  energy-range for DOS
   EFERMI =   0.00
   ISMEAR =     0;   SIGMA  =   0.20  broadening in eV -4-tet -1-fermi 0-gaus

 Electronic relaxation 2 (details)
   IALGO  =     38    algorithm
   LDIAG  =      T    sub-space diagonalisation (order eigenvalues)
   LSUBROT=      F    optimize rotation matrix (better conditioning)
   TURBO    =      0    0=normal 1=particle mesh
   IRESTART =      0    0=no restart 2=restart with 2 vectors
   NREBOOT  =      0    no. of reboots
   NMIN     =      0    reboot dimension
   EREF     =   0.00    reference energy to select bands
   IMIX   =      4    mixing-type and parameters
     AMIX     =   0.40;   BMIX     =  1.00
     AMIX_MAG =   1.60;   BMIX_MAG =  1.00
     AMIN     =   0.10
     WC   =   100.;   INIMIX=   1;  MIXPRE=   1;  MAXMIX= -45

 Intra band minimization:
   WEIMIN = 0.0010     energy-eigenvalue tresh-hold
[...]
      5.78000      3.36000      0.00000         0.000000      0.004332      0.000000
      2.89000      5.04000      0.00000         0.000000      0.004332      0.000000
      0.00000      6.72000      0.00000         0.000000      0.004332      0.000000
     -0.96900      1.67900     28.66200         0.051954     -0.002166     -0.121120
      0.96900      1.67900      1.33800        -0.051954     -0.002166      0.121120
     -3.85900      3.35900     28.66200         0.051954     -0.002166     -0.121120
     -1.92100      3.35900      1.33800        -0.051954     -0.002166      0.121120
     -6.74900      5.03900     28.66200         0.051954     -0.002166     -0.121120
     -4.81100      5.03900      1.33800        -0.051954     -0.002166      0.121120
      1.92100      3.35900     28.66200         0.051954     -0.002166     -0.121120
      3.85900      3.35900      1.33800        -0.051954     -0.002166      0.121120
     -0.96900      5.03900     28.66200         0.051954     -0.002166     -0.121120
      0.96900      5.03900      1.33800        -0.051954     -0.002166      0.121120
     -3.85900      6.71900     28.66200         0.051954     -0.002166     -0.121120
     -1.92100      6.71900      1.33800        -0.051954     -0.002166      0.121120
      4.81100      5.03900     28.66200         0.051954     -0.002166     -0.121120
      6.74900      5.03900      1.33800        -0.051954     -0.002166      0.121120
      1.92100      6.71900     28.66200         0.051954     -0.002166     -0.121120
      3.85900      6.71900      1.33800        -0.051954     -0.002166      0.121120
     -0.96900      8.39900     28.66200         0.051954     -0.002166     -0.121120
      0.96900      8.39900      1.33800        -0.051954     -0.002166      0.121120
    total drift:                                0.000006      0.000076      0.002571

  FREE ENERGIE OF THE ION-ELECTRON SYSTEM (eV)
  free  energy   TOTEN  =      -169.76511351 eV

  energy  without entropy=     -169.16359941  energy(sigma->0) =     -169.46435646

 Quasi-Newton relaxation of ions (Broydens 2nd method)
  g(Force)  = 0.151E-01   g(Stress)= 0.410E+01

 Reset! Starting new Quasi-Newton update for ions

[...]

 d Force = 0.8519593E-01[ 0.155E+00, 0.150E-01]  d Energy = 0.1863593E+01-0.178E+01
 d Force = 0.6021061E+02[ 0.644E+02, 0.560E+02]  d Ewald  =-0.6438227E+04 0.650E+04

[...]

 retain information from N=  1 steps
 eigenvalues of (default step * inverse Hessian matrix)
  average eigenvalue of G=   0.8285
 eigenvalue spectrum of G is  0.8285

[...]

 d Force = 0.8926988E+00[ 0.364E+00, 0.142E+01]  d Energy = 0.8314620E+00 0.612E-01
 d Force = 0.5895960E+03[ 0.584E+03, 0.595E+03]  d Ewald  = 0.1623515E+04-0.103E+04

[...]

 d Force = 0.1895983E+00[ 0.680E-01, 0.311E+00]  d Energy = 0.3854222E+00-0.196E+00
 d Force = 0.5715132E+03[ 0.586E+03, 0.557E+03]  d Ewald  =-0.1944854E+04 0.252E+04

[...]

 d Force = 0.7191957E-02[-0.250E-02, 0.169E-01]  d Energy = 0.1335051E-01-0.616E-02
 d Force = 0.1461485E+03[ 0.147E+03, 0.145E+03]  d Ewald  =-0.4483816E+03 0.595E+03

[...]

 d Force =-0.5585930E-04[ 0.727E-05,-0.119E-03]  d Energy =-0.5812931E-03 0.525E-03
 d Force = 0.7059166E+01[ 0.707E+01, 0.705E+01]  d Ewald  =-0.9983501E+02 0.107E+03

[...]

 FEWALD executed in parallel

[...]

 eigenvalue-minimisations  :  6000
 total energy-change (2. order) : 0.3734298E-03  (-0.1059609E-03)
 number of electron     162.0000400 magnetization
 augmentation part        7.7274333 magnetization

 Broyden mixing:
  rms(total) = 0.10092E-02    rms(broyden)= 0.10052E-02
  rms(prec ) = 0.10458E-02
  weight for this iteration     100.00

 eigenvalues of (default mixing * dielectric matrix)
  average eigenvalue GAMMA=   1.1541
  1.9186  1.2509  0.2927

[...]

----------------------------------------- Iteration    8(   5)  ---------------------------------------

 eigenvalue-minimisations  :  2880
 total energy-change (2. order) :-0.3313065E-05  (-0.6954948E-05)
 number of electron     162.0000400 magnetization
 augmentation part        7.7274333 magnetization

 Free energy of the ion-electron system (eV)
  alpha Z        PSCENC =        79.60754481
  Ewald energy   TEWEN  =     51832.03136080
  -Hartree energ DENC   =    -58473.12008451
  -exchange      EXHF   =         0.00000000
  -V(xc)+E(xc)   XCENC  =        51.08359981
  PAW double counting   =      4450.08597673    -4215.10562062
  entropy T*S    EENTRO =        -0.31602119
  eigenvalues    EBANDS =     -1372.66296522
  atomic energy  EATOM  =      7475.22437441
  Solvation  Ediel_sol  =         0.00000000
  free energy    TOTEN  =      -173.17183498 eV

  energy without entropy =     -172.85581379  energy(sigma->0) =     -173.01382438

 average (electrostatic) potential at core
  the test charge radii are     1.1394  0.9698
  (the norm of the test charge is              1.0000)
       1 -52.4657       2 -52.4657       3 -52.4657       4 -52.4657       5 -52.4657
       6 -52.4657       7 -52.4657       8 -52.4657       9 -52.4657      10 -95.0319
      11 -95.0319      12 -95.0319      13 -95.0319      14 -95.0320      15 -95.0319
      16 -95.0319      17 -95.0319      18 -95.0319      19 -95.0319      20 -95.0319
      21 -95.0319      22 -95.0319      23 -95.0319      24 -95.0320      25 -95.0319
      26 -95.0320      27 -95.0319

 E-fermi :  -2.8668     XC(G=0):  -2.5923     alpha+bet : -2.4693

[...]

 k-point    21 :       0.5000    0.5000    0.0000
  band No.  band energies     occupation
      1     -17.6730      2.00000
      2     -17.6730      2.00000
      3     -16.8616      2.00000
      4     -16.8616      2.00000
      5     -16.6425      2.00000
      6     -16.6425      2.00000
      7     -16.1471      2.00000
      8     -16.1471      2.00000
      9     -15.7537      2.00000
     10     -15.7537      2.00000
     11     -15.7537      2.00000
     12     -15.7537      2.00000
     13     -15.7226      2.00000
     14     -15.5320      2.00000
     15     -15.5320      2.00000
     16     -15.5320      2.00000
     17     -15.5320      2.00000
     18     -15.4911      2.00000
     19      -9.7838      2.00000
     20      -9.0610      2.00000
     21      -9.0610      2.00000
     22      -9.0610      2.00000
     23      -9.0610      2.00000
     24      -8.6248      2.00000
     25      -8.5579      2.00000
     26      -8.5579      2.00000
     27      -8.4019      2.00000
     28      -8.4019      2.00000
     29      -8.4019      2.00000
     30      -8.4019      2.00000
     31      -7.8890      2.00000
     32      -7.8890      2.00000
     33      -7.7140      2.00000
     34      -7.7140      2.00000
     35      -7.1021      2.00000
     36      -7.1021      2.00000
     37      -7.0902      2.00000
     38      -7.0902      2.00000
     39      -6.9560      2.00000
     40      -6.8924      2.00000
     41      -6.8924      2.00000
     42      -6.8924      2.00000
     43      -6.8924      2.00000
     44      -6.6387      2.00000
     45      -6.6387      2.00000
     46      -6.6387      2.00000
     47      -6.6387      2.00000
     48      -6.2301      2.00000
     49      -6.1607      2.00000
     50      -6.1607      2.00000
     51      -6.1607      2.00000
     52      -6.1607      2.00000
     53      -5.8705      2.00000
     54      -5.8705      2.00000
     55      -5.8559      2.00000
     56      -5.8559      2.00000
     57      -5.8206      2.00000
     58      -5.8206      2.00000
     59      -5.7226      2.00000
     60      -5.7226      2.00000
[...]
     98      -2.0948      0.00000
     99      -2.0948      0.00000
    100      -1.2192      0.00000
    101      -1.2192      0.00000
    102      -1.2192      0.00000
    103      -1.2192      0.00000
    104      -1.2007      0.00000
    105      -1.2007      0.00000
    106      -0.9778      0.00000
    107      -0.9778      0.00000
    108      -0.4492      0.00000
    109      -0.4492      0.00000
    110      -0.2255      0.00000
    111      -0.1681      0.00000
    112      -0.1681      0.00000

 soft charge-density along one line, spin component           1
         0         1         2         3         4         5         6         7         8         9
 total charge-density along one line

------------------------ aborting loop because EDIFF is reached ----------------------------------------

  FORCE on cell =-STRESS in cart. coord.  units (eV):
  Direction    XX          YY          ZZ          XY          YZ          ZX
  Alpha Z    79.60754    79.60754    79.60754
  Ewald   57224.87607 57224.86808-62617.72728    -0.00000    -0.00000    -0.06380
  Hartree 58077.59586 58077.58518-57682.01579     0.00000     0.00000    -0.01749
  E(xc)    -614.69689  -614.69670  -622.61377     0.00000     0.00000     0.00003
  Local  ************************117693.60591     0.00000     0.00000     0.07788
  n-local  1212.84186  1212.83411  1272.29068    -0.08332    -0.29710    -0.00180
  augment   -63.69921   -63.69895   -67.47484    -0.00000     0.00000     0.00111
  Kinetic  1899.03150  1899.02397  1942.97680     2.85977     3.59388     0.01139
  Fock        0.00000     0.00000     0.00000     0.00000     0.00000     0.00000
  Total       0.26388     0.26138    -1.35076    -0.00000    -0.00000     0.00731
  in kB       0.19371     0.19188    -0.99160    -0.00000    -0.00000     0.00537

 VOLUME and BASIS-vectors are now :
  energy-cutoff  :      280.00
  volume of cell :     2182.49
      direct lattice vectors                 reciprocal lattice vectors
     7.937169251  4.582854215  0.000000000     0.062994753  0.109102311  0.000000000
    -7.937169125  4.582854434  0.000000000    -0.062994750  0.109102312  0.000000000
     0.000000000  0.000000000 30.000000000     0.000000000  0.000000000  0.033333333

  length of vectors
     9.165217317  9.165217317 30.000000000     0.125982749  0.125982749  0.033333333

 FORCES acting on ions
    electron-ion (+dipol)            ewald-force                    non-local-force                 convergence-correction
   -.117E-07 0.321E-02 0.185E-05   0.116E-07 -.319E-02 0.141E-04   -.309E-11 -.225E-03 -.212E-20   -.172E-10 0.887E-05 0.475E-07
   -.640E-05 0.321E-02 0.392E-05   0.156E-04 -.321E-02 0.291E-04   -.309E-11 -.225E-03 -.212E-21   -.263E-10 0.887E-05 0.468E-07
   -.128E-04 0.322E-02 0.599E-05   0.312E-04 -.324E-02 0.441E-04   -.309E-11 -.225E-03 -.424E-21   -.617E-10 0.887E-05 0.460E-07
   0.638E-05 0.321E-02 -.200E-06   -.156E-04 -.321E-02 -.754E-06   -.309E-11 -.225E-03 -.127E-20   -.494E-11 0.887E-05 0.482E-07
   -.456E-08 0.322E-02 0.185E-05   0.500E-07 -.324E-02 0.141E-04   -.309E-11 -.225E-03 -.424E-21   -.198E-10 0.887E-05 0.475E-07
   -.637E-05 0.323E-02 0.392E-05   0.155E-04 -.327E-02 0.291E-04   -.309E-11 -.225E-03 0.212E-20   -.500E-10 0.887E-05 0.468E-07
   0.128E-04 0.322E-02 -.225E-05   -.312E-04 -.324E-02 -.156E-04   -.309E-11 -.225E-03 0.424E-21   0.276E-10 0.887E-05 0.490E-07
   0.638E-05 0.323E-02 -.193E-06   -.156E-04 -.327E-02 -.699E-06   -.309E-11 -.225E-03 -.212E-21   0.185E-10 0.887E-05 0.482E-07
   0.294E-07 0.323E-02 0.187E-05   -.590E-08 -.330E-02 0.142E-04   -.309E-11 -.225E-03 -.424E-21   -.193E-10 0.887E-05 0.475E-07
   -.226E-02 -.183E-02 0.650E+03   0.241E-02 0.165E-02 -.654E+03   -.384E-03 0.389E-03 0.431E+01   0.565E-05 -.314E-05 0.313E-02
   0.226E-02 -.184E-02 -.650E+03   -.241E-02 0.165E-02 0.654E+03   0.384E-03 0.389E-03 -.431E+01   -.565E-05 -.314E-05 -.313E-02
   -.221E-02 -.186E-02 0.650E+03   0.242E-02 0.162E-02 -.654E+03   -.384E-03 0.389E-03 0.431E+01   0.565E-05 -.314E-05 0.313E-02
   0.230E-02 -.186E-02 -.650E+03   -.239E-02 0.162E-02 0.654E+03   0.384E-03 0.389E-03 -.431E+01   -.565E-05 -.314E-05 -.313E-02
   -.230E-02 -.181E-02 0.650E+03   0.240E-02 0.166E-02 -.654E+03   -.384E-03 0.389E-03 0.431E+01   0.565E-05 -.314E-05 0.313E-02
   0.234E-02 -.188E-02 -.650E+03   -.239E-02 0.160E-02 0.654E+03   0.384E-03 0.389E-03 -.431E+01   -.565E-05 -.314E-05 -.313E-02
   -.230E-02 -.186E-02 0.650E+03   0.239E-02 0.162E-02 -.654E+03   -.384E-03 0.389E-03 0.431E+01   0.565E-05 -.314E-05 0.313E-02
   0.221E-02 -.186E-02 -.650E+03   -.242E-02 0.162E-02 0.654E+03   0.384E-03 0.389E-03 -.431E+01   -.565E-05 -.314E-05 -.313E-02
   -.226E-02 -.188E-02 0.650E+03   0.241E-02 0.160E-02 -.654E+03   -.384E-03 0.389E-03 0.431E+01   0.565E-05 -.314E-05 0.313E-02
   0.226E-02 -.188E-02 -.650E+03   -.241E-02 0.160E-02 0.654E+03   0.384E-03 0.389E-03 -.431E+01   -.565E-05 -.314E-05 -.313E-02
   -.234E-02 -.183E-02 0.650E+03   0.239E-02 0.164E-02 -.654E+03   -.384E-03 0.389E-03 0.431E+01   0.565E-05 -.314E-05 0.313E-02
   0.230E-02 -.191E-02 -.650E+03   -.240E-02 0.158E-02 0.654E+03   0.384E-03 0.389E-03 -.431E+01   -.565E-05 -.314E-05 -.313E-02
   -.234E-02 -.188E-02 0.650E+03   0.239E-02 0.160E-02 -.654E+03   -.384E-03 0.389E-03 0.431E+01   0.565E-05 -.314E-05 0.313E-02
   0.230E-02 -.182E-02 -.650E+03   -.240E-02 0.166E-02 0.654E+03   0.384E-03 0.389E-03 -.431E+01   -.565E-05 -.314E-05 -.313E-02
   -.230E-02 -.190E-02 0.650E+03   0.240E-02 0.158E-02 -.654E+03   -.384E-03 0.389E-03 0.431E+01   0.565E-05 -.314E-05 0.313E-02
   0.234E-02 -.184E-02 -.650E+03   -.239E-02 0.164E-02 0.654E+03   0.384E-03 0.389E-03 -.431E+01   -.565E-05 -.314E-05 -.313E-02
   -.238E-02 -.186E-02 0.650E+03   0.238E-02 0.162E-02 -.654E+03   -.384E-03 0.389E-03 0.431E+01   0.565E-05 -.314E-05 0.313E-02
   0.238E-02 -.186E-02 -.650E+03   -.238E-02 0.162E-02 0.654E+03   0.384E-03 0.389E-03 -.431E+01   -.565E-05 -.314E-05 -.313E-02
   0.263E-06 -.448E-02 0.263E-02   -.119E-12 -.309E-13 -.227E-12   0.686E-10 0.499E-02 -.888E-15   -.137E-09 0.233E-04 0.106E-05

 POSITION                                       TOTAL-FORCE (eV/Angst)
     -0.00000     -0.00057     -0.00000        -0.000000     -0.000259     -0.000000
      5.29145      6.10990     -0.00000        -0.000000     -0.000259     -0.000000
     -5.29145      3.05466     -0.00000        -0.000000     -0.000259     -0.000000
      2.64572      1.52704     -0.00000        -0.000000     -0.000259     -0.000000
      0.00000      3.05466     -0.00000        -0.000000     -0.000259     -0.000000
     -2.64572      4.58228     -0.00000        -0.000000     -0.000259     -0.000000
      5.29145      3.05466     -0.00000        -0.000000     -0.000259     -0.000000
      2.64572      4.58228     -0.00000        -0.000000     -0.000259     -0.000000
      0.00000      6.10990     -0.00000        -0.000000     -0.000259     -0.000000
     -0.88185      1.52700     28.52205        -0.000277      0.000130      0.004244
      0.88185      1.52700      1.47795         0.000277      0.000130     -0.004244
     -3.52757      3.05461     28.52205        -0.000277      0.000130      0.004244
     -1.76387      3.05461      1.47795         0.000277      0.000130     -0.004244
     -6.17330      4.58223     28.52205        -0.000277      0.000130      0.004244
     -4.40960      4.58223      1.47795         0.000277      0.000130     -0.004244
      1.76387      3.05461     28.52205        -0.000277      0.000130      0.004244
      3.52757      3.05461      1.47795         0.000277      0.000130     -0.004244
     -0.88185      4.58223     28.52205        -0.000277      0.000130      0.004244
      0.88185      4.58223      1.47795         0.000277      0.000130     -0.004244
     -3.52757      6.10985     28.52205        -0.000277      0.000130      0.004244
     -1.76387      6.10985      1.47795         0.000277      0.000130     -0.004244
      4.40960      4.58223     28.52205        -0.000277      0.000130      0.004244
      6.17330      4.58223      1.47795         0.000277      0.000130     -0.004244
      1.76387      6.10985     28.52205        -0.000277      0.000130      0.004244
      3.52757      6.10985      1.47795         0.000277      0.000130     -0.004244
     -0.88185      7.63747     28.52205        -0.000277      0.000130      0.004244
      0.88185      7.63747      1.47795         0.000277      0.000130     -0.004244
    total drift:                                0.000000      0.000528      0.002630

  FREE ENERGIE OF THE ION-ELECTRON SYSTEM (eV)
  free  energy   TOTEN  =      -173.17183498 eV

  energy  without entropy=     -172.85581379  energy(sigma->0) =     -173.01382438

 d Force = 0.2383346E-04[ 0.561E-04,-0.845E-05]  d Energy = 0.5855357E-03-0.562E-03
 d Force =-0.8644968E+01[-0.864E+01,-0.865E+01]  d Ewald  = 0.6450492E+02-0.731E+02

 Quasi-Newton relaxation of ions (Broydens 2nd method)
  g(Force)  = 0.158E-04   g(Stress)= 0.246E-03

 retain information from N=  1 steps
 eigenvalues of (default step * inverse Hessian matrix)
  average eigenvalue of G=   1.1437
 eigenvalue spectrum of G is  1.1437

 reached required accuracy - stopping structural energy minimisation